c   #vars: 78   #clauses: 355   #literals: 990
c 
p cnf 78 355
-1 -2 0
-3 -4 0
8 51 52 -65 0
-6 -7 0
27 47 48 -64 0
11 12 49 50 0
-9 -10 0
-11 -12 0
-13 -14 0
-15 -16 0
-17 -18 0
-19 -20 0
-21 -22 0
3 4 38 39 0
11 12 38 39 0
-23 -24 0
-25 -26 0
-13 32 67 68 0
-28 -29 0
-30 -31 0
46 -62 65 66 0
-33 -34 0
-28 49 50 78 0
-36 -37 0
-38 -39 0
-40 -41 0
-42 -43 0
-44 -45 0
8 -12 -51 53 0
-47 -48 0
-49 -50 0
-51 -52 0
-54 -55 0
-56 -57 0
5 -60 69 70 0
-58 -59 0
-60 -61 0
13 14 36 37 0
-62 -63 0
-36 40 41 71 0
-65 -66 0
-67 -68 0
28 29 -49 78 0
28 29 -42 78 0
-69 -70 0
-6 9 10 35 0
-72 -73 0
-74 -75 0
-76 -77 0
9 10 65 66 0
-1 -28 0
-2 -29 0
27 54 55 -64 0
-1 -56 0
-2 -57 0
-1 -72 0
-2 -73 0
5 30 31 -60 0
-1 -76 0
-2 -77 0
23 24 62 63 0
-21 46 65 66 0
-4 -32 0
18 -28 78 0
-3 -38 0
-4 -39 0
-3 -58 0
-4 -59 0
38 39 72 73 0
-3 -62 0
-4 -63 0
27 -34 -54 64 0
-4 -71 0
40 41 67 68 0
8 51 52 -53 0
-5 -31 0
17 18 58 59 0
-5 -61 0
36 37 65 66 0
-5 -70 0
46 62 63 -65 0
-6 -33 0
-7 -34 0
-8 13 14 53 0
-17 49 50 78 0
-7 -35 0
21 22 72 73 0
-6 -36 0
-7 -37 0
38 39 58 59 0
-6 -51 0
-7 -52 0
27 47 48 -54 0
-8 -52 0
19 20 58 59 0
-3 36 37 71 0
19 20 28 29 0
36 37 -40 71 0
-8 -66 0
8 -53 65 66 0
6 7 -19 35 0
-17 42 43 78 0
6 7 -9 35 0
13 14 42 43 0
-9 -30 0
-10 -31 0
44 45 58 59 0
42 43 -49 78 0
-10 -35 0
54 55 69 70 0
-9 -51 0
-10 -52 0
28 29 58 59 0
-9 -65 0
-10 -66 0
15 16 76 77 0
-11 -36 0
-12 -37 0
15 16 40 41 0
-11 -38 0
-12 -39 0
-11 -49 0
-12 -50 0
1 2 72 73 0
-11 -53 0
44 45 60 61 0
-11 -56 0
-12 -57 0
33 34 76 77 0
-11 -60 0
-12 -61 0
-42 49 50 78 0
21 22 46 -65 0
-14 -32 0
15 16 51 52 0
-13 -36 0
-14 -37 0
19 20 67 68 0
-13 -42 0
-14 -43 0
21 22 62 63 0
-13 -53 0
-13 -58 0
-14 -59 0
44 45 76 77 0
-13 -60 0
-14 -61 0
30 31 62 63 0
-13 -69 0
-14 -70 0
15 16 30 31 0
8 -51 65 66 0
5 60 61 -69 0
-15 -28 0
-16 -29 0
17 18 60 61 0
-15 -30 0
-16 -31 0
-3 13 14 32 0
-15 -40 0
-16 -41 0
17 18 74 75 0
-15 -51 0
-16 -52 0
17 18 44 45 0
-15 -65 0
-16 -66 0
-15 -76 0
-16 -77 0
21 22 76 77 0
-17 -28 0
-18 -29 0
-17 -44 0
-18 -45 0
21 22 54 55 0
-17 -58 0
-18 -59 0
1 2 76 77 0
-17 -60 0
-18 -61 0
27 -48 -54 64 0
-17 -74 0
-18 -75 0
11 12 60 61 0
-18 -78 0
23 24 33 34 0
-19 -28 0
-20 -29 0
-28 42 43 78 0
-20 -35 0
6 7 33 34 0
-19 -58 0
-20 -59 0
-19 -67 0
-20 -68 0
5 30 31 -69 0
-19 -69 0
-20 -70 0
25 26 56 57 0
-21 -38 0
-22 -39 0
-27 33 34 64 0
8 -14 -51 53 0
-22 -46 0
23 24 56 57 0
-21 -54 0
-22 -55 0
25 26 54 55 0
-21 -62 0
-22 -63 0
49 50 74 75 0
-21 -72 0
-22 -73 0
-21 -76 0
-22 -77 0
47 48 69 70 0
27 -34 -47 64 0
33 34 -48 64 0
27 -47 -48 64 0
17 18 -42 78 0
-23 -30 0
-24 -31 0
17 18 -49 78 0
-23 -33 0
-24 -34 0
9 10 -19 35 0
-23 -56 0
-24 -57 0
-12 13 14 53 0
-23 -62 0
-24 -63 0
3 4 58 59 0
-25 -47 0
-26 -48 0
-25 -49 0
-26 -50 0
1 2 56 57 0
-25 -54 0
-26 -55 0
-25 -56 0
-26 -57 0
17 18 28 29 0
-25 -62 0
-26 -63 0
15 16 28 29 0
-25 -69 0
-26 -70 0
38 39 74 75 0
-3 32 67 68 0
-27 -48 0
30 31 74 75 0
3 4 32 -67 0
-27 -55 0
36 37 69 70 0
3 4 -13 32 0
-3 40 41 71 0
11 12 36 37 0
-28 -58 0
-29 -59 0
11 12 56 57 0
-29 -78 0
13 14 60 61 0
-30 -62 0
-31 -63 0
38 39 67 68 0
-30 -67 0
-31 -68 0
40 41 62 63 0
-30 -72 0
-31 -73 0
-21 46 63 0
-30 -74 0
-31 -75 0
30 31 72 73 0
22 46 -62 0
-32 -68 0
-6 19 20 35 0
-33 -64 0
3 4 -40 71 0
-33 -76 0
-34 -77 0
30 31 67 68 0
13 14 58 59 0
5 -30 60 61 0
9 10 51 52 0
-36 -65 0
-37 -66 0
6 7 51 52 0
-36 -69 0
-37 -70 0
9 10 30 31 0
-37 -71 0
25 26 62 63 0
-38 -58 0
-39 -59 0
21 22 38 39 0
-38 -67 0
-39 -68 0
54 55 58 59 0
-38 -72 0
-39 -73 0
13 14 69 70 0
-38 -74 0
-39 -75 0
-9 19 20 35 0
-40 -62 0
-41 -63 0
1 2 28 29 0
25 26 69 70 0
-40 -67 0
-41 -68 0
6 7 36 37 0
-41 -71 0
-42 -56 0
-43 -57 0
25 26 49 50 0
-43 -78 0
-17 29 78 0
13 14 32 -67 0
-44 -58 0
-45 -59 0
8 -14 53 -65 0
-44 -60 0
-45 -61 0
-44 -76 0
-45 -77 0
25 26 47 48 0
-8 11 12 53 0
-46 -63 0
15 16 65 66 0
8 -12 53 -65 0
-46 -66 0
-47 -64 0
3 4 -36 71 0
3 4 62 63 0
-47 -69 0
-48 -70 0
23 24 30 31 0
-49 -74 0
-50 -75 0
27 -47 54 55 0
-50 -78 0
5 -30 69 70 0
-34 47 48 64 0
51 52 65 66 0
-51 -65 0
-52 -66 0
11 12 -14 53 0
-27 47 48 64 0
42 43 56 57 0
-54 -58 0
-55 -59 0
19 20 69 70 0
-54 -69 0
-55 -70 0
